NAME: cum190.tsp
TYPE: TSP
COMMENT: User-generated TSP file
DIMENSION: 190
EDGE_WEIGHT_TYPE: EUC_2D
NODE_COORD_SECTION
1 40.0 185.0
2 48.0 179.0
3 129.0 77.0
4 82.0 106.0
5 124.0 152.0
6 77.0 19.0
7 170.0 17.0
8 86.0 8.0
9 80.0 179.0
10 112.0 109.0
11 58.0 131.0
12 158.0 104.0
13 74.0 66.0
14 70.0 108.0
15 75.0 106.0
16 46.0 53.0
17 114.0 181.0
18 121.0 189.0
19 15.0 99.0
20 60.0 129.0
21 65.0 77.0
22 20.0 57.0
23 38.0 64.0
24 68.0 30.0
25 121.0 7.0
26 57.0 130.0
27 159.0 42.0
28 118.0 124.0
29 45.0 94.0
30 88.0 19.0
31 4.0 67.0
32 76.0 27.0
33 121.0 133.0
34 115.0 118.0
35 64.0 102.0
36 57.0 116.0
37 54.0 51.0
38 95.0 62.0
39 157.0 87.0
40 65.0 187.0
41 7.0 187.0
42 93.0 100.0
43 3.0 73.0
44 134.0 101.0
45 129.0 25.0
46 45.0 73.0
47 188.0 131.0
48 70.0 60.0
49 161.0 14.0
50 47.0 171.0
51 134.0 27.0
52 172.0 102.0
53 120.0 132.0
54 162.0 82.0
55 154.0 149.0
56 183.0 23.0
57 40.0 139.0
58 186.0 91.0
59 11.0 128.0
60 13.0 1.0
61 54.0 99.0
62 92.0 82.0
63 128.0 16.0
64 159.0 155.0
65 75.0 169.0
66 36.0 128.0
67 73.0 5.0
68 180.0 139.0
69 152.0 77.0
70 5.0 49.0
71 108.0 15.0
72 9.0 134.0
73 115.0 78.0
74 4.0 149.0
75 146.0 154.0
76 110.0 61.0
77 50.0 136.0
78 167.0 48.0
79 48.0 158.0
80 84.0 188.0
81 131.0 173.0
82 170.0 49.0
83 136.0 128.0
84 190.0 75.0
85 7.0 7.0
86 37.0 103.0
87 97.0 13.0
88 176.0 154.0
89 61.0 112.0
90 48.0 130.0
91 31.0 85.0
92 124.0 179.0
93 91.0 13.0
94 189.0 20.0
95 134.0 57.0
96 173.0 37.0
97 109.0 170.0
98 148.0 153.0
99 122.0 138.0
100 153.0 32.0
101 4.0 175.0
102 169.0 124.0
103 162.0 142.0
104 3.0 39.0
105 30.0 8.0
106 91.0 94.0
107 25.0 8.0
108 59.0 18.0
109 88.0 168.0
110 10.0 52.0
111 116.0 116.0
112 88.0 139.0
113 48.0 102.0
114 68.0 30.0
115 82.0 104.0
116 108.0 63.0
117 12.0 134.0
118 76.0 53.0
119 156.0 101.0
120 157.0 170.0
121 16.0 139.0
122 75.0 35.0
123 13.0 25.0
124 12.0 138.0
125 30.0 79.0
126 42.0 29.0
127 5.0 77.0
128 82.0 69.0
129 19.0 71.0
130 134.0 68.0
131 150.0 21.0
132 96.0 85.0
133 120.0 148.0
134 127.0 117.0
135 182.0 94.0
136 34.0 173.0
137 131.0 66.0
138 126.0 98.0
139 37.0 182.0
140 96.0 180.0
141 102.0 77.0
142 5.0 135.0
143 154.0 16.0
144 150.0 52.0
145 91.0 51.0
146 12.0 174.0
147 124.0 190.0
148 3.0 48.0
149 28.0 8.0
150 33.0 156.0
151 11.0 97.0
152 1.0 54.0
153 95.0 117.0
154 154.0 4.0
155 68.0 49.0
156 146.0 23.0
157 61.0 60.0
158 105.0 172.0
159 82.0 71.0
160 79.0 86.0
161 16.0 190.0
162 91.0 170.0
163 143.0 42.0
164 7.0 126.0
165 42.0 185.0
166 65.0 34.0
167 19.0 122.0
168 190.0 119.0
169 11.0 100.0
170 46.0 21.0
171 111.0 124.0
172 19.0 172.0
173 99.0 100.0
174 62.0 21.0
175 73.0 89.0
176 32.0 88.0
177 90.0 47.0
178 190.0 75.0
179 188.0 50.0
180 158.0 121.0
181 100.0 67.0
182 17.0 156.0
183 132.0 37.0
184 178.0 90.0
185 146.0 4.0
186 46.0 150.0
187 170.0 99.0
188 42.0 1.0
189 182.0 123.0
190 64.0 175.0
EOF





